decision_x1=[0,7];
decision_x2=[0,7];
decision_x3=[0,7];
decision_x4=[0,7];
decision_x5=[0,7];
decision_x6=[0,7];
decision_x7=[0,7];
decision_x8=[0,7];
decision_x9=[0,7];
decision_x10=[0,7];
decision_x11=[0,7];
decision_x12=[0,7];
decision_x13=[0,7];
decision_x14=[0,7];
random_y1=[0,7];
random_y2=[0,7];
random_y3=[0,7];
random_y4=[0,7];
random_y5=[0,7];
random_y6=[0,7];
constraint_x2_x1=[
0,0,9|
0,1,4.3|
0,2,8.7|
0,3,3.6|
0,4,5.6|
0,5,7.4|
0,6,6.8|
0,7,9.6|
1,0,6.8|
1,1,8.2|
1,2,2.9|
1,3,6|
1,4,6.4|
1,5,6.5|
1,6,0.27|
1,7,3.8|
2,0,2.9|
2,1,7.3|
2,2,0.31|
2,3,6.2|
2,4,5.8|
2,5,5.2|
2,6,2.5|
2,7,9.9|
3,0,5.1|
3,1,1.8|
3,2,8.4|
3,3,0.32|
3,4,3.8|
3,5,7|
3,6,8.8|
3,7,8.3|
4,0,4.8|
4,1,3.8|
4,2,3.9|
4,3,0.6|
4,4,5|
4,5,5.5|
4,6,0.99|
4,7,3.6|
5,0,4.1|
5,1,6.1|
5,2,6.4|
5,3,5.4|
5,4,8.9|
5,5,5.3|
5,6,2.9|
5,7,2|
6,0,8|
6,1,2.7|
6,2,0.65|
6,3,5.8|
6,4,9.7|
6,5,7|
6,6,7.6|
6,7,1.5|
7,0,0.4|
7,1,4.3|
7,2,1.2|
7,3,2.1|
7,4,8.8|
7,5,4.3|
7,6,8.4|
7,7,1.6|
];
constraint_x3_x2=[
0,0,2.9|
0,1,3.1|
0,2,1.9|
0,3,0.84|
0,4,8.1|
0,5,0.19|
0,6,1.6|
0,7,7|
1,0,0.24|
1,1,3.1|
1,2,8.2|
1,3,9|
1,4,0.43|
1,5,6.5|
1,6,5.7|
1,7,3.2|
2,0,8.8|
2,1,1.5|
2,2,6.7|
2,3,2|
2,4,8|
2,5,3.7|
2,6,2.9|
2,7,2.8|
3,0,4.6|
3,1,2.9|
3,2,0.76|
3,3,2.2|
3,4,4.8|
3,5,1.5|
3,6,2.9|
3,7,0.7|
4,0,4.2|
4,1,4.3|
4,2,2.4|
4,3,2.9|
4,4,0.28|
4,5,8.8|
4,6,3|
4,7,4.5|
5,0,5.1|
5,1,4.1|
5,2,4.9|
5,3,2.4|
5,4,6.3|
5,5,3.7|
5,6,6.7|
5,7,9.7|
6,0,6.4|
6,1,4.6|
6,2,5.7|
6,3,7.1|
6,4,5.3|
6,5,8.8|
6,6,6.4|
6,7,6.1|
7,0,3.2|
7,1,9.2|
7,2,0.46|
7,3,1.2|
7,4,4.8|
7,5,5.8|
7,6,9|
7,7,8.8|
];
constraint_x4_x3=[
0,0,6.8|
0,1,7.8|
0,2,9.5|
0,3,3.2|
0,4,8.5|
0,5,4.6|
0,6,4|
0,7,5.6|
1,0,3.5|
1,1,8.1|
1,2,2.6|
1,3,0.031|
1,4,3.1|
1,5,2.3|
1,6,4.6|
1,7,0.45|
2,0,2.9|
2,1,3.7|
2,2,9.6|
2,3,4.2|
2,4,2.4|
2,5,8.3|
2,6,5|
2,7,3.1|
3,0,0.26|
3,1,4.9|
3,2,1.6|
3,3,9.5|
3,4,2.7|
3,5,5.7|
3,6,6.8|
3,7,1.2|
4,0,5.1|
4,1,6.6|
4,2,4.1|
4,3,1.3|
4,4,1.4|
4,5,6.8|
4,6,9.9|
4,7,0.89|
5,0,2.3|
5,1,8.3|
5,2,3.2|
5,3,2.2|
5,4,1.2|
5,5,9.8|
5,6,2.1|
5,7,4.4|
6,0,9|
6,1,6.7|
6,2,6.7|
6,3,6.3|
6,4,2.2|
6,5,8.2|
6,6,3.2|
6,7,8.9|
7,0,0.76|
7,1,3.7|
7,2,7.9|
7,3,7.9|
7,4,1.4|
7,5,6.5|
7,6,9|
7,7,9.1|
];
constraint_x5_x1=[
0,0,2.8|
0,1,6.1|
0,2,5.4|
0,3,8.1|
0,4,9|
0,5,0.51|
0,6,4.5|
0,7,4.2|
1,0,4.6|
1,1,3.2|
1,2,1.2|
1,3,7.9|
1,4,0.69|
1,5,6.7|
1,6,0.7|
1,7,5|
2,0,1.1|
2,1,3|
2,2,9|
2,3,1.7|
2,4,5.7|
2,5,1.5|
2,6,2.8|
2,7,5.8|
3,0,0.78|
3,1,5.9|
3,2,9.8|
3,3,3.9|
3,4,5.1|
3,5,8.9|
3,6,2.2|
3,7,6.9|
4,0,6.9|
4,1,9.3|
4,2,3|
4,3,2.6|
4,4,4.9|
4,5,8.2|
4,6,3.6|
4,7,0.87|
5,0,4.9|
5,1,7.9|
5,2,1.6|
5,3,6.5|
5,4,1.6|
5,5,8.2|
5,6,7.5|
5,7,9|
6,0,9.1|
6,1,2.6|
6,2,2.8|
6,3,2.8|
6,4,2.1|
6,5,9.7|
6,6,7.8|
6,7,8.4|
7,0,2|
7,1,8.9|
7,2,9.5|
7,3,9.5|
7,4,2.6|
7,5,0.71|
7,6,3.3|
7,7,0.44|
];
constraint_x6_x2=[
0,0,0.24|
0,1,8.7|
0,2,6.9|
0,3,1.5|
0,4,1.4|
0,5,3.9|
0,6,3.3|
0,7,2.2|
1,0,3.7|
1,1,3.8|
1,2,7.7|
1,3,1.4|
1,4,5|
1,5,3.1|
1,6,1.2|
1,7,6|
2,0,4.4|
2,1,4.9|
2,2,9|
2,3,1.9|
2,4,6.6|
2,5,4.5|
2,6,9.6|
2,7,7.9|
3,0,6.2|
3,1,0.93|
3,2,5.3|
3,3,0.022|
3,4,8.4|
3,5,8.5|
3,6,8|
3,7,7.7|
4,0,2.7|
4,1,9|
4,2,3.6|
4,3,4.6|
4,4,7.6|
4,5,8.1|
4,6,9.5|
4,7,7|
5,0,8.1|
5,1,6|
5,2,2|
5,3,1.2|
5,4,4.1|
5,5,1.3|
5,6,5.9|
5,7,1.3|
6,0,6.6|
6,1,7.8|
6,2,5.8|
6,3,5.3|
6,4,5.6|
6,5,0.98|
6,6,3.7|
6,7,8|
7,0,8.9|
7,1,9.9|
7,2,3.7|
7,3,0.65|
7,4,0.64|
7,5,2.9|
7,6,4|
7,7,8.8|
];
constraint_x6_x5=[
0,0,4.1|
0,1,5|
0,2,4.1|
0,3,7.6|
0,4,6.2|
0,5,5.3|
0,6,2.8|
0,7,6|
1,0,3.8|
1,1,9.2|
1,2,0.45|
1,3,8.5|
1,4,1.3|
1,5,2.8|
1,6,1.4|
1,7,4.5|
2,0,5.4|
2,1,4.8|
2,2,9.7|
2,3,9|
2,4,4.3|
2,5,2.7|
2,6,2.2|
2,7,9.7|
3,0,8.8|
3,1,3.8|
3,2,6.6|
3,3,9.4|
3,4,5.5|
3,5,6.2|
3,6,0.058|
3,7,4|
4,0,4.5|
4,1,6.2|
4,2,9.1|
4,3,8.2|
4,4,9.2|
4,5,1.2|
4,6,5|
4,7,8.9|
5,0,0.49|
5,1,4.9|
5,2,1.9|
5,3,7.4|
5,4,0.19|
5,5,5.2|
5,6,9|
5,7,3.5|
6,0,8.5|
6,1,8.3|
6,2,9.5|
6,3,6.5|
6,4,4.7|
6,5,2.4|
6,6,3|
6,7,8.8|
7,0,0.34|
7,1,9.9|
7,2,1.5|
7,3,8|
7,4,9|
7,5,0.065|
7,6,8.2|
7,7,4.7|
];
constraint_x7_x3=[
0,0,2.3|
0,1,1.4|
0,2,4.8|
0,3,4.3|
0,4,3.9|
0,5,3.1|
0,6,8.1|
0,7,3.1|
1,0,3.3|
1,1,7.8|
1,2,8.2|
1,3,8|
1,4,7.3|
1,5,1.9|
1,6,5.5|
1,7,1.7|
2,0,7.4|
2,1,1.6|
2,2,8.1|
2,3,4.9|
2,4,7|
2,5,8|
2,6,5.3|
2,7,0.12|
3,0,7.3|
3,1,5|
3,2,8.8|
3,3,7|
3,4,4.4|
3,5,7|
3,6,9.7|
3,7,0.36|
4,0,9.4|
4,1,0.8|
4,2,8.1|
4,3,1.4|
4,4,8.1|
4,5,0.4|
4,6,2.8|
4,7,9.8|
5,0,5.7|
5,1,3.1|
5,2,4.7|
5,3,7.1|
5,4,8.3|
5,5,7.5|
5,6,2.3|
5,7,7.4|
6,0,6.8|
6,1,6.3|
6,2,0.92|
6,3,5.8|
6,4,8.7|
6,5,5.4|
6,6,3.9|
6,7,2.8|
7,0,1.1|
7,1,7.3|
7,2,2.5|
7,3,0.41|
7,4,3.3|
7,5,8.9|
7,6,3.5|
7,7,7.2|
];
constraint_x7_x6=[
0,0,9.2|
0,1,7.3|
0,2,6|
0,3,8.4|
0,4,2.7|
0,5,3.5|
0,6,7.6|
0,7,7.1|
1,0,5.9|
1,1,3.9|
1,2,2.8|
1,3,0.48|
1,4,4.4|
1,5,4|
1,6,8|
1,7,1.9|
2,0,2.6|
2,1,8.1|
2,2,3|
2,3,5.3|
2,4,8|
2,5,2.5|
2,6,1.1|
2,7,9.8|
3,0,3.8|
3,1,0.84|
3,2,3.4|
3,3,9.5|
3,4,7.6|
3,5,1.5|
3,6,5.7|
3,7,2.1|
4,0,3.6|
4,1,4.6|
4,2,5.6|
4,3,4.6|
4,4,5.4|
4,5,0.71|
4,6,9.3|
4,7,9.7|
5,0,1|
5,1,8.8|
5,2,6.7|
5,3,9.8|
5,4,2.4|
5,5,3.3|
5,6,7.5|
5,7,4|
6,0,5.1|
6,1,10|
6,2,1.2|
6,3,0.33|
6,4,1.9|
6,5,2.8|
6,6,0.19|
6,7,9.1|
7,0,2.6|
7,1,7.5|
7,2,2.3|
7,3,3.9|
7,4,8.1|
7,5,5.5|
7,6,2.4|
7,7,3.8|
];
constraint_x8_x4=[
0,0,2.7|
0,1,4.4|
0,2,9.6|
0,3,2.6|
0,4,8.7|
0,5,0.48|
0,6,6.3|
0,7,9.1|
1,0,6|
1,1,4.3|
1,2,9.3|
1,3,9.1|
1,4,7.2|
1,5,9.2|
1,6,7.5|
1,7,6.9|
2,0,4.4|
2,1,8.7|
2,2,0.8|
2,3,9.7|
2,4,6.7|
2,5,4.2|
2,6,6.9|
2,7,2.2|
3,0,4.8|
3,1,8.9|
3,2,0.61|
3,3,9.3|
3,4,7.1|
3,5,4.5|
3,6,7.7|
3,7,4.4|
4,0,8.9|
4,1,4.9|
4,2,3.6|
4,3,5.7|
4,4,7.5|
4,5,8.9|
4,6,2.2|
4,7,5.8|
5,0,5.4|
5,1,5|
5,2,7|
5,3,1.2|
5,4,8.9|
5,5,0.33|
5,6,2.3|
5,7,8.2|
6,0,3.7|
6,1,3.9|
6,2,5.8|
6,3,5.2|
6,4,3.2|
6,5,0.8|
6,6,4.5|
6,7,4.6|
7,0,0.93|
7,1,1.8|
7,2,6.5|
7,3,0.16|
7,4,1.9|
7,5,7.1|
7,6,6.7|
7,7,7.4|
];
constraint_x8_x7=[
0,0,2.9|
0,1,7.6|
0,2,7.7|
0,3,9.2|
0,4,8.7|
0,5,2.2|
0,6,9.5|
0,7,1.5|
1,0,9.1|
1,1,1.1|
1,2,2.9|
1,3,5.1|
1,4,9.8|
1,5,5.6|
1,6,3.6|
1,7,6.8|
2,0,7.1|
2,1,8.5|
2,2,3.8|
2,3,4.6|
2,4,1.1|
2,5,3.5|
2,6,7.7|
2,7,8.4|
3,0,5.8|
3,1,3.4|
3,2,4.8|
3,3,3.3|
3,4,8.7|
3,5,9.6|
3,6,1.8|
3,7,1.6|
4,0,4.9|
4,1,7.1|
4,2,7.2|
4,3,7.5|
4,4,1|
4,5,2.9|
4,6,1|
4,7,8.5|
5,0,8.8|
5,1,2.1|
5,2,0.62|
5,3,2.9|
5,4,1.5|
5,5,3|
5,6,1.9|
5,7,4.8|
6,0,6.6|
6,1,1.6|
6,2,2.4|
6,3,2.8|
6,4,9.7|
6,5,2.9|
6,6,4.1|
6,7,9|
7,0,0.77|
7,1,3.1|
7,2,9.6|
7,3,5|
7,4,4.9|
7,5,2.9|
7,6,1.6|
7,7,7.3|
];
constraint_x9_x5=[
0,0,9|
0,1,2.1|
0,2,3.9|
0,3,8.8|
0,4,7.9|
0,5,7.5|
0,6,3.2|
0,7,4.7|
1,0,9.6|
1,1,5.7|
1,2,7.6|
1,3,4.3|
1,4,8.4|
1,5,5.9|
1,6,3.4|
1,7,3.1|
2,0,2.7|
2,1,2.4|
2,2,2.9|
2,3,7.5|
2,4,5.4|
2,5,9.7|
2,6,8|
2,7,0.71|
3,0,4.5|
3,1,8.7|
3,2,3.3|
3,3,1.8|
3,4,7.4|
3,5,8.7|
3,6,0.42|
3,7,1.4|
4,0,0.08|
4,1,1|
4,2,0.45|
4,3,6.2|
4,4,6.7|
4,5,9.5|
4,6,3.9|
4,7,8.6|
5,0,1.5|
5,1,5.1|
5,2,1.8|
5,3,2.1|
5,4,8.2|
5,5,1.4|
5,6,3|
5,7,4.6|
6,0,2|
6,1,4.5|
6,2,5.6|
6,3,4.1|
6,4,9.5|
6,5,8.1|
6,6,9.6|
6,7,6.4|
7,0,1.2|
7,1,4|
7,2,3.8|
7,3,4.4|
7,4,6.7|
7,5,0.88|
7,6,5.5|
7,7,7.8|
];
constraint_x10_x6=[
0,0,7.7|
0,1,4.8|
0,2,9.5|
0,3,4.6|
0,4,3.2|
0,5,4.8|
0,6,6.4|
0,7,1.8|
1,0,9.7|
1,1,9.3|
1,2,1.9|
1,3,5.4|
1,4,5.9|
1,5,2.7|
1,6,6.6|
1,7,1.7|
2,0,4.8|
2,1,5.5|
2,2,7.6|
2,3,8.5|
2,4,4.8|
2,5,2.5|
2,6,7.9|
2,7,2.1|
3,0,6.9|
3,1,6.4|
3,2,3.7|
3,3,5|
3,4,5|
3,5,4.5|
3,6,9.5|
3,7,0.13|
4,0,10|
4,1,5.7|
4,2,8.3|
4,3,7.5|
4,4,7.6|
4,5,8.1|
4,6,0.12|
4,7,5.8|
5,0,1.7|
5,1,1.2|
5,2,6.4|
5,3,4|
5,4,2.5|
5,5,3.3|
5,6,5.1|
5,7,10|
6,0,7.3|
6,1,5.6|
6,2,5.1|
6,3,1.5|
6,4,9.6|
6,5,3.4|
6,6,7.3|
6,7,9.2|
7,0,4.7|
7,1,7.6|
7,2,5|
7,3,7.2|
7,4,8|
7,5,8.6|
7,6,5.3|
7,7,0.74|
];
constraint_x11_x7=[
0,0,3.5|
0,1,2.8|
0,2,6|
0,3,2.6|
0,4,7.9|
0,5,1.2|
0,6,8.6|
0,7,1.1|
1,0,1.6|
1,1,4.1|
1,2,9.8|
1,3,4.4|
1,4,7|
1,5,7.8|
1,6,6.9|
1,7,0.48|
2,0,2.1|
2,1,5.4|
2,2,1.7|
2,3,5.5|
2,4,5.3|
2,5,3.1|
2,6,2.3|
2,7,5.9|
3,0,9.8|
3,1,0.19|
3,2,4|
3,3,3.5|
3,4,8.1|
3,5,0.85|
3,6,6.6|
3,7,8.5|
4,0,4|
4,1,0.79|
4,2,4.1|
4,3,7.7|
4,4,2.9|
4,5,8|
4,6,0.041|
4,7,8.5|
5,0,2|
5,1,7.3|
5,2,7.5|
5,3,2.8|
5,4,9|
5,5,8.9|
5,6,0.94|
5,7,7.7|
6,0,10|
6,1,8.7|
6,2,2.3|
6,3,6.6|
6,4,0.79|
6,5,10|
6,6,7.4|
6,7,2.1|
7,0,6.3|
7,1,4.4|
7,2,2.8|
7,3,0.71|
7,4,3.2|
7,5,2.5|
7,6,4.2|
7,7,4.1|
];
constraint_x12_x8=[
0,0,2.4|
0,1,1.3|
0,2,7.4|
0,3,8.5|
0,4,9.2|
0,5,0.15|
0,6,9.5|
0,7,0.88|
1,0,9.3|
1,1,5.9|
1,2,3.5|
1,3,6|
1,4,8.3|
1,5,8.2|
1,6,9.1|
1,7,3.4|
2,0,1.7|
2,1,1.3|
2,2,8.6|
2,3,6.1|
2,4,9.4|
2,5,1.8|
2,6,0.33|
2,7,6.5|
3,0,1.5|
3,1,9.5|
3,2,7.6|
3,3,1.3|
3,4,8.1|
3,5,4.5|
3,6,2.2|
3,7,3.5|
4,0,0.77|
4,1,5.8|
4,2,2.3|
4,3,6.1|
4,4,1.5|
4,5,6.3|
4,6,4|
4,7,0.22|
5,0,9.9|
5,1,0.096|
5,2,6.2|
5,3,8.9|
5,4,0.82|
5,5,8|
5,6,6.8|
5,7,9.3|
6,0,6.2|
6,1,6.9|
6,2,7.9|
6,3,2.6|
6,4,7.7|
6,5,8.7|
6,6,8.5|
6,7,4.2|
7,0,9.6|
7,1,5.5|
7,2,9.6|
7,3,1.2|
7,4,7|
7,5,3.7|
7,6,2.3|
7,7,6.6|
];
constraint_x13_x9=[
0,0,0.92|
0,1,5.8|
0,2,3.4|
0,3,1.4|
0,4,2.5|
0,5,5.3|
0,6,8.6|
0,7,7.5|
1,0,4.5|
1,1,9.7|
1,2,9.8|
1,3,5.5|
1,4,6.8|
1,5,7.9|
1,6,6.3|
1,7,9|
2,0,6.9|
2,1,8.8|
2,2,7.9|
2,3,1.1|
2,4,5.4|
2,5,4.9|
2,6,9|
2,7,5.3|
3,0,7.8|
3,1,9.6|
3,2,1.8|
3,3,3.5|
3,4,0.26|
3,5,6.1|
3,6,0.11|
3,7,8.1|
4,0,7.5|
4,1,5.8|
4,2,4.5|
4,3,6.2|
4,4,0.79|
4,5,4.9|
4,6,1.3|
4,7,3.8|
5,0,9.2|
5,1,6.4|
5,2,8.2|
5,3,6.4|
5,4,3.4|
5,5,7.7|
5,6,3.9|
5,7,8.1|
6,0,3.6|
6,1,6.6|
6,2,1.8|
6,3,5.6|
6,4,9|
6,5,8.2|
6,6,2.2|
6,7,5.7|
7,0,4.8|
7,1,6.5|
7,2,9|
7,3,6.3|
7,4,1.7|
7,5,2.1|
7,6,1.2|
7,7,8.5|
];
constraint_x14_x10=[
0,0,9.6|
0,1,6.9|
0,2,2.4|
0,3,9.4|
0,4,9.8|
0,5,5.6|
0,6,8.5|
0,7,7.2|
1,0,0.3|
1,1,7.9|
1,2,2.9|
1,3,6.2|
1,4,7|
1,5,9.9|
1,6,5.3|
1,7,8.2|
2,0,9|
2,1,2.3|
2,2,3.2|
2,3,9|
2,4,8.3|
2,5,8.6|
2,6,6.6|
2,7,6.1|
3,0,7.1|
3,1,8.5|
3,2,2.9|
3,3,3.2|
3,4,5.5|
3,5,0.035|
3,6,6|
3,7,8.9|
4,0,8.8|
4,1,5.7|
4,2,5.7|
4,3,7.5|
4,4,2|
4,5,7.1|
4,6,3.2|
4,7,6.4|
5,0,3.1|
5,1,8.3|
5,2,4.7|
5,3,2|
5,4,0.067|
5,5,3.2|
5,6,9.8|
5,7,0.88|
6,0,0.22|
6,1,5.7|
6,2,9.3|
6,3,3.5|
6,4,0.81|
6,5,6.8|
6,6,3.3|
6,7,8.8|
7,0,7.9|
7,1,1|
7,2,4.4|
7,3,1.7|
7,4,1.3|
7,5,1.6|
7,6,0.96|
7,7,7.6|
];
constraint_x1_y1=[
0,0,5.8|
0,1,5.6|
0,2,5|
0,3,5.1|
0,4,7.2|
0,5,7.1|
0,6,8|
0,7,3.6|
1,0,0.18|
1,1,1.1|
1,2,5.7|
1,3,8|
1,4,7.5|
1,5,6.1|
1,6,8.9|
1,7,0.78|
2,0,4.2|
2,1,6.3|
2,2,8.8|
2,3,4|
2,4,4.2|
2,5,3|
2,6,0.46|
2,7,3.1|
3,0,3.5|
3,1,8|
3,2,2.7|
3,3,8.1|
3,4,3.6|
3,5,4.6|
3,6,4.1|
3,7,6.1|
4,0,3.4|
4,1,8.4|
4,2,2.8|
4,3,2.9|
4,4,2.3|
4,5,8.3|
4,6,8.1|
4,7,3.4|
5,0,4.1|
5,1,8|
5,2,5.1|
5,3,9.2|
5,4,8|
5,5,0.57|
5,6,0.4|
5,7,9|
6,0,4.2|
6,1,8|
6,2,4.2|
6,3,9.1|
6,4,9.6|
6,5,4.8|
6,6,0.62|
6,7,0.61|
7,0,3.4|
7,1,2.8|
7,2,3.2|
7,3,6.6|
7,4,4.8|
7,5,4.2|
7,6,0.67|
7,7,4.5|
];
constraint_x2_y2=[
0,0,9.6|
0,1,2.9|
0,2,5.6|
0,3,1.1|
0,4,1.8|
0,5,4.4|
0,6,2.8|
0,7,2.8|
1,0,7.7|
1,1,5.9|
1,2,4.2|
1,3,9|
1,4,5.4|
1,5,9.8|
1,6,9.9|
1,7,2.9|
2,0,0.24|
2,1,8|
2,2,8.9|
2,3,5.4|
2,4,2.5|
2,5,6.7|
2,6,8.3|
2,7,1.9|
3,0,2.4|
3,1,5.1|
3,2,7.3|
3,3,2.3|
3,4,1.6|
3,5,2.5|
3,6,1.4|
3,7,7.1|
4,0,1.8|
4,1,9|
4,2,5.2|
4,3,1.8|
4,4,7.2|
4,5,10|
4,6,4|
4,7,0.96|
5,0,9.4|
5,1,3.2|
5,2,7.4|
5,3,4.9|
5,4,1.4|
5,5,2.6|
5,6,3.6|
5,7,2.2|
6,0,5.4|
6,1,2.3|
6,2,2.6|
6,3,8.2|
6,4,6.1|
6,5,5.1|
6,6,5|
6,7,1.5|
7,0,4.2|
7,1,8.9|
7,2,3.1|
7,3,9.4|
7,4,2.3|
7,5,4.9|
7,6,1.2|
7,7,1.1|
];
constraint_x3_y3=[
0,0,5.8|
0,1,2.6|
0,2,6.5|
0,3,9.3|
0,4,5.9|
0,5,6.2|
0,6,0.8|
0,7,4.8|
1,0,9.2|
1,1,2.2|
1,2,3|
1,3,3|
1,4,1.6|
1,5,0.6|
1,6,9.3|
1,7,6.6|
2,0,0.12|
2,1,4.2|
2,2,6.5|
2,3,2|
2,4,5.7|
2,5,3.7|
2,6,4.7|
2,7,7.4|
3,0,8.4|
3,1,2.1|
3,2,9.6|
3,3,4.6|
3,4,2.6|
3,5,9.7|
3,6,4.7|
3,7,1.5|
4,0,6|
4,1,3.1|
4,2,1.9|
4,3,9.6|
4,4,5.1|
4,5,4.5|
4,6,3.9|
4,7,6.1|
5,0,6.1|
5,1,1|
5,2,5.7|
5,3,4.6|
5,4,7.3|
5,5,7.4|
5,6,5.8|
5,7,2.2|
6,0,0.044|
6,1,7.5|
6,2,2.2|
6,3,5.6|
6,4,3.9|
6,5,1.8|
6,6,1.3|
6,7,2.8|
7,0,7.6|
7,1,2.3|
7,2,6.7|
7,3,4.7|
7,4,9.9|
7,5,1|
7,6,5.6|
7,7,3.9|
];
constraint_x4_y4=[
0,0,5.9|
0,1,0.61|
0,2,0.61|
0,3,7.7|
0,4,3.6|
0,5,5.4|
0,6,8.5|
0,7,3|
1,0,0.44|
1,1,2.3|
1,2,6.1|
1,3,0.77|
1,4,5.7|
1,5,1.3|
1,6,5.6|
1,7,8|
2,0,0.65|
2,1,1.2|
2,2,1.5|
2,3,1.4|
2,4,0.52|
2,5,6.1|
2,6,0.42|
2,7,2.5|
3,0,7.3|
3,1,3.4|
3,2,0.93|
3,3,4.9|
3,4,3.5|
3,5,3.4|
3,6,4.2|
3,7,7.3|
4,0,6.3|
4,1,7.8|
4,2,6.6|
4,3,7.6|
4,4,7.2|
4,5,8.8|
4,6,6.4|
4,7,1.9|
5,0,8.7|
5,1,7.2|
5,2,2.5|
5,3,0.76|
5,4,3.6|
5,5,2.6|
5,6,3.5|
5,7,4.5|
6,0,4.4|
6,1,3.3|
6,2,0.35|
6,3,4|
6,4,6.8|
6,5,9.3|
6,6,4.9|
6,7,0.16|
7,0,1.5|
7,1,6.5|
7,2,9.4|
7,3,5.2|
7,4,6.4|
7,5,2.7|
7,6,3.4|
7,7,1.5|
];
constraint_x5_y5=[
0,0,5.3|
0,1,1.6|
0,2,7.8|
0,3,9.5|
0,4,5.1|
0,5,4.6|
0,6,0.6|
0,7,2|
1,0,4.1|
1,1,0.29|
1,2,3.6|
1,3,2.4|
1,4,1.4|
1,5,9.8|
1,6,7.6|
1,7,8.4|
2,0,6.3|
2,1,0.76|
2,2,0.68|
2,3,1.5|
2,4,2.2|
2,5,1.9|
2,6,7.4|
2,7,9|
3,0,3|
3,1,1.3|
3,2,7.2|
3,3,0.94|
3,4,9.3|
3,5,4.7|
3,6,1.6|
3,7,8.8|
4,0,0.87|
4,1,4.5|
4,2,1.4|
4,3,9.8|
4,4,0.27|
4,5,2.3|
4,6,0.45|
4,7,0.43|
5,0,9.4|
5,1,8|
5,2,4.4|
5,3,9.3|
5,4,9.7|
5,5,7|
5,6,7|
5,7,2.4|
6,0,4.9|
6,1,7.1|
6,2,3.3|
6,3,6.5|
6,4,7.2|
6,5,3|
6,6,4.9|
6,7,1.4|
7,0,7.7|
7,1,6.5|
7,2,4.3|
7,3,9.4|
7,4,2.8|
7,5,6|
7,6,4.9|
7,7,2|
];
constraint_x6_y6=[
0,0,7.4|
0,1,6.4|
0,2,8.5|
0,3,2.7|
0,4,1.6|
0,5,7|
0,6,9.2|
0,7,6.7|
1,0,6.7|
1,1,9.5|
1,2,3.6|
1,3,3.6|
1,4,4.4|
1,5,5.3|
1,6,5.4|
1,7,6.6|
2,0,2.2|
2,1,2|
2,2,0.85|
2,3,4.9|
2,4,5.6|
2,5,6.3|
2,6,6|
2,7,2.8|
3,0,9.5|
3,1,2.4|
3,2,6.5|
3,3,3.8|
3,4,0.25|
3,5,5.1|
3,6,7.4|
3,7,3.9|
4,0,0.44|
4,1,1.4|
4,2,1.2|
4,3,8.8|
4,4,5.8|
4,5,9.9|
4,6,0.59|
4,7,9.9|
5,0,2.3|
5,1,2.5|
5,2,2.4|
5,3,9.6|
5,4,6.7|
5,5,5.8|
5,6,6.6|
5,7,3.4|
6,0,6.9|
6,1,9.9|
6,2,1.7|
6,3,3.1|
6,4,7.5|
6,5,3.2|
6,6,3.5|
6,7,3.3|
7,0,5.6|
7,1,6|
7,2,3|
7,3,5.6|
7,4,9.5|
7,5,4|
7,6,4.5|
7,7,3.5|
];
initial_distribution_y1=[0.16,0.13,0.099,0.078,0.2,0.2,0.061,0.066];
initial_distribution_y2=[0.034,0.23,0.11,0.19,0.071,0.1,0.045,0.22];
initial_distribution_y3=[0.11,0.08,0.22,0.022,0.23,0.03,0.083,0.23];
initial_distribution_y4=[0.084,0.2,0.095,0.18,0.03,0.1,0.12,0.19];
initial_distribution_y5=[0.16,0.02,0.16,0.099,0.053,0.13,0.27,0.1];
initial_distribution_y6=[0.071,0.058,0.12,0.28,0.26,0.05,0.14,0.0094];
transition_y1=[
0.19,0.17,0.061,0.047,0.11,0.093,0.16,0.17|
0.072,0.22,0.2,0.063,0.21,0.054,0.033,0.15|
0.13,0.12,0.24,0.11,0.049,0.22,0.013,0.12|
0.11,0.13,0.14,0.15,0.0041,0.22,0.016,0.22|
0.021,0.043,0.18,0.16,0.11,0.17,0.22,0.11|
0.048,0.066,0.17,0.14,0.21,0.16,0.17,0.045|
0.15,0.14,0.044,0.21,0.23,0.011,0.17,0.035|
0.14,0.091,0.11,0.22,0.17,0.029,0.18,0.058|
];
transition_y2=[
0.026,0.15,0.17,0.16,0.091,0.028,0.17,0.21|
0.23,0.099,0.074,0.017,0.09,0.32,0.065,0.11|
0.18,0.098,0.054,0.15,0.043,0.2,0.15,0.13|
0.3,0.079,0.056,0.086,0.11,0.12,0.22,0.041|
0.23,0.038,0.064,0.13,0.077,0.19,0.13,0.14|
0.12,0.063,0.024,0.21,0.12,0.12,0.17,0.18|
0.16,0.16,0.19,0.039,0.19,0.047,0.12,0.11|
0.14,0.17,0.18,0.15,0.035,0.071,0.13,0.11|
];
transition_y3=[
0.02,0.28,0.19,0.073,0.019,0.28,0.11,0.03|
0.17,0.11,0.063,0.14,0.075,0.22,0.15,0.075|
0.16,0.17,0.17,0.17,0.14,0.04,0.13,0.024|
0.036,0.004,0.22,0.083,0.26,0.082,0.12,0.19|
0.12,0.26,0.13,0.055,0.0039,0.19,0.11,0.13|
0.035,0.056,0.21,0.073,0.2,0.11,0.16,0.16|
0.18,0.14,0.16,0.041,0.18,0.21,0.098,0.0057|
0.048,0.11,0.13,0.14,0.12,0.25,0.013,0.2|
];
transition_y4=[
0.15,0.16,0.1,0.19,0.032,0.14,0.026,0.2|
0.079,0.18,0.14,0.074,0.19,0.12,0.15,0.081|
0.099,0.11,0.18,0.033,0.082,0.15,0.18,0.17|
0.0037,0.23,0.13,0.18,0.057,0.15,0.077,0.17|
0.1,0.12,0.044,0.2,0.049,0.17,0.16,0.15|
0.16,0.061,0.072,0.063,0.14,0.2,0.15,0.16|
0.25,0.083,0.12,0.092,0.02,0.12,0.063,0.25|
0.039,0.0065,0.12,0.061,0.25,0.22,0.049,0.26|
];
transition_y5=[
0.24,0.082,0.13,0.13,0.096,0.11,0.052,0.15|
0.058,0.13,0.0078,0.19,0.18,0.03,0.16,0.24|
0.15,0.16,0.11,0.0039,0.16,0.17,0.15,0.098|
0.13,0.095,0.18,0.096,0.082,0.2,0.2,0.025|
0.12,0.1,0.14,0.19,0.15,0.083,0.18,0.024|
0.16,0.21,0.018,0.23,0.16,0.038,0.16,0.029|
0.075,0.0087,0.17,0.18,0.11,0.15,0.14,0.18|
0.036,0.074,0.1,0.15,0.2,0.12,0.2,0.12|
];
transition_y6=[
0.17,0.1,0.054,0.22,0.11,0.14,0.2,0.01|
0.16,0.024,0.22,0.06,0.19,0.28,0.0079,0.061|
0.04,0.22,0.033,0.14,0.22,0.13,0.15,0.062|
0.2,0.16,0.19,0.0071,0.06,0.11,0.18,0.093|
0.14,0.17,0.18,0.16,0.034,0.064,0.09,0.16|
0.19,0.089,0.15,0.081,0.083,0.19,0.14,0.083|
0.18,0.2,0.16,0.09,0.06,0.19,0.005,0.11|
0.18,0.23,0.13,0.03,0.024,0.19,0.16,0.052|
];
